% File represents an instance of a Composite Structure problem to be solved by a CP framework
% Created on 2025-03-25 14:06:10.799
T = 36;
n = 9;
m = 12;
edges = [(1, 2),
(4, 5),
(8, 7),
(2, 3),
(5, 6),
(8, 9),
(4, 1),
(7, 4),
(5, 2),
(8, 5),
(6, 3),
(9, 6)];
counts = [|4, 10, 2, 10,
|4, 6, 2, 10,
|4, 2, 2, 4,
|10, 10, 2, 10,
|6, 8, 2, 10,
|6, 2, 2, 6,
|10, 12, 2, 10,
|10, 12, 2, 12,
|10, 2, 2, 12|];
